 14 5 2
 0 21 1 53 3 95 4 55 2 34
 1 21 4 52 3 16 2 26 0 71
 4 39 3 98 0 42 2 31 1 12
 1 83 4 34 2 64 0 19 3 37
 0 77 1 55 3 79 2 66 4 77
 0 54 2 43 3 79 1 92 4 62
 4 69 3 77 0 87 2 87 1 93
 2 38 1 60 0 41 4 24 3 83
 4 17 0 49 3 25 1 44 2 98
 3 77 4 79 2 43 0 75 1 96
 0 21 1 53 3 95 4 55 2 34
 1 21 4 52 3 16 2 26 0 71
 4 39 3 98 0 42 2 31 1 12
 0 77 1 55 3 79 2 66 4 77
 1 83 4 34 2 64 0 19 3 37
 0 54 2 43 3 79 1 92 4 62
 4 69 3 77 0 87 2 87 1 93
 2 38 1 60 0 41 4 24 3 83
 4 17 0 49 3 25 1 44 2 98
 3 77 4 79 2 43 0 75 1 96
